Route #1: 60 157 116 104 160 148 154 161 86 122 145 120 136 142 73
Route #2: 121 6 17 33 58 132 5 88 102 152 147 40 138 109 93 156
Route #3: 162 78 98 118 28 10 22 61 56 2 15 90 150 18 128
Route #4: 91 146 69 59 39 74 12 49 27 29 151
Route #5: 53 117 112 141 32 107 101 67 57 95 37 36 100 131 87 54
Route #6: 26 48 99 84 105 64 114 71 66 70 47 62 42 77 55
Route #7: 9 43 52 13 65 19 20 4 34 76 45 8 35 23 79
Route #8: 111 129 125 135 149 110 3 83 119 31 41 158 113 133 94 126
Route #9: 80 21 68 63 115 96 130 143 44 124 89 97 103 155 81
Route #10: 30 11 106 127 144 85 123 108 134 139 140 16
Route #11: 51 46 153 24 25 50 7 38 72 14 159 82 75 92 137
Cost 25328
